\ENCODING=ISO-8859-1
\Problem name: IloCplex

Minimize
 obj1: - 6.12480576771201 ap(0) - 13.875194232288 am(0) - 10.649595800735 ap(1)
       - 9.35040419926503 am(1) - 12.742126533396 ap(2) - 7.257873466604 am(2)
       - 0.16252696615657 ap(3) - 19.8374730338434 am(3)
       - 7.00077184520456 ap(4) - 12.9992281547954 am(4)
       - 14.6663880637828 ap(5) - 5.33361193621724 am(5)
       - 7.97936765985573 ap(6) - 12.0206323401443 am(6)
       - 13.4657712097339 ap(7) - 6.53422879026608 am(7)
       + 2.9575836002304 ap(8) - 22.9575836002304 am(8)
       - 6.29945062828637 ap(9) - 13.7005493717136 am(9)
       - 12.7841297318103 ap(10) - 7.2158702681897 am(10)
       + 6.4933565263938 ap(11) - 26.4933565263938 am(11)
       - 0.15944444330119 ap(12) - 19.8405555566988 am(12)
       - 9.90193910789547 ap(13) - 10.0980608921045 am(13)
       - 5.8544660912915 ap(14) - 14.1455339087085 am(14)
       - 8.9024223377098 ap(15) - 11.0975776622902 am(15)
       - 2.01198705554148 ap(16) - 17.9880129444585 am(16)
       - 9.5480064052592 ap(17) - 10.4519935947408 am(17)
       - 9.31632312934334 ap(18) - 10.6836768706567 am(18)
       - 8.58751607126845 ap(19) - 11.4124839287316 am(19)
       - 7.48356285023934 ap(20) - 12.5164371497607 am(20)
       - 10.2842600159715 ap(21) - 9.7157399840285 am(21)
       - 8.31377419048559 ap(22) - 11.6862258095144 am(22)
       - 13.3351829739532 ap(23) - 6.66481702604677 am(23)
       + 0.0769326779580997 ap(24) - 20.0769326779581 am(24)
       + 2.7813075619656 ap(25) - 22.7813075619656 am(25)
       - 10.257252669095 ap(26) - 9.74274733090496 am(26)
       - 1.34130796742833 ap(27) - 18.6586920325717 am(27)
       - 6.52691514849762 ap(28) - 13.4730848515024 am(28)
       - 11.4930301163426 ap(29) - 8.5069698836574 am(29)
       - 98338.1669345485 pip(0) + 98338.1669345485 psip(0)
       - 98338.1669345485 pim(0) + 98338.1669345485 psim(0)
       - 210067.861904958 pip(1) + 210067.861904958 psip(1)
       - 210067.861904958 pim(1) + 210067.861904958 psim(1)
       - 1138715.08330176 pip(2) + 1138715.08330176 psip(2)
       - 1138715.08330176 pim(2) + 1138715.08330176 psim(2)
       - 35176.3843474778 pip(3) + 35176.3843474778 psip(3)
       - 35176.3843474778 pim(3) + 35176.3843474778 psim(3)
       - 34707.2685582368 pip(4) + 34707.2685582368 psip(4)
       - 34707.2685582368 pim(4) + 34707.2685582368 psim(4)
       - 309612.605059712 pip(5) + 309612.605059712 psip(5)
       - 309612.605059712 pim(5) + 309612.605059712 psim(5)
       - 0.174207603276244 pip(6) + 0.174207603276244 psip(6)
       - 0.174207603276244 pim(6) + 0.174207603276244 psim(6)
       - 2.19230480622556 pip(7) + 2.19230480622556 psip(7)
       - 2.19230480622556 pim(7) + 2.19230480622556 psim(7)
       - 336040.609473724 pip(8) + 336040.609473724 psip(8)
       - 336040.609473724 pim(8) + 336040.609473724 psim(8)
       - 22388.2190710076 pip(9) + 22388.2190710076 psip(9)
       - 22388.2190710076 pim(9) + 22388.2190710076 psim(9)
       - 536016.976133606 pip(10) + 536016.976133606 psip(10)
       - 536016.976133606 pim(10) + 536016.976133606 psim(10)
       - 436513.787557593 pip(11) + 436513.787557593 psip(11)
       - 436513.787557593 pim(11) + 436513.787557593 psim(11)
       - 928805.018274404 pip(12) + 928805.018274404 psip(12)
       - 928805.018274404 pim(12) + 928805.018274404 psim(12)
       - 299899.95498663 pip(13) + 299899.95498663 psip(13)
       - 299899.95498663 pim(13) + 299899.95498663 psim(13)
       - 0.368486206436813 pip(14) + 0.368486206436813 psip(14)
       - 0.368486206436813 pim(14) + 0.368486206436813 psim(14)
       - 73344.5555986031 pip(15) + 73344.5555986031 psip(15)
       - 73344.5555986031 pim(15) + 73344.5555986031 psim(15)
       - 844562.200188497 pip(16) + 844562.200188497 psip(16)
       - 844562.200188497 pim(16) + 844562.200188497 psim(16)
       - 776444.183769329 pip(17) + 776444.183769329 psip(17)
       - 776444.183769329 pim(17) + 776444.183769329 psim(17)
       - 178747.471969063 pip(18) + 178747.471969063 psip(18)
       - 178747.471969063 pim(18) + 178747.471969063 psim(18)
       - 96724.6057459246 pip(19) + 96724.6057459246 psip(19)
       - 96724.6057459246 pim(19) + 96724.6057459246 psim(19)
       - 280585.736703628 pip(20) + 280585.736703628 psip(20)
       - 280585.736703628 pim(20) + 280585.736703628 psim(20)
       - 0.537563069197278 pip(21) + 0.537563069197278 psip(21)
       - 0.537563069197278 pim(21) + 0.537563069197278 psim(21)
       - 123277.992790926 pip(22) + 123277.992790926 psip(22)
       - 123277.992790926 pim(22) + 123277.992790926 psim(22)
       - 54473.4785171492 pip(23) + 54473.4785171492 psip(23)
       - 54473.4785171492 pim(23) + 54473.4785171492 psim(23)
       - 0.309016934174622 pip(24) + 0.309016934174622 psip(24)
       - 0.309016934174622 pim(24) + 0.309016934174622 psim(24)
       - 897552.333650173 pip(25) + 897552.333650173 psip(25)
       - 897552.333650173 pim(25) + 897552.333650173 psim(25)
       - 345716.521716023 pip(26) + 345716.521716023 psip(26)
       - 345716.521716023 pim(26) + 345716.521716023 psim(26)
       - 45867.0288797256 pip(27) + 45867.0288797256 psip(27)
       - 45867.0288797256 pim(27) + 45867.0288797256 psim(27)
       - 134775.407672028 pip(28) + 134775.407672028 psip(28)
       - 134775.407672028 pim(28) + 134775.407672028 psim(28)
       - 24845.7238458689 pip(29) + 24845.7238458689 psip(29)
       - 24845.7238458689 pim(29) + 24845.7238458689 psim(29) - 3 beta1
       + 3 beta2 - phi(0) - phi(1) - phi(2) - phi(3) - phi(4) - phi(5) - phi(6)
       - phi(7) - phi(8) - sigma(0) - sigma(1) - sigma(2) - sigma(3) - sigma(4)
       - sigma(5) - sigma(6) - sigma(7) - sigma(8) - sigma(9) - sigma(10)
       - sigma(11) - sigma(12) - sigma(13) - sigma(14) - sigma(15) - sigma(16)
       - sigma(17) - sigma(18) - sigma(19) - sigma(20) - sigma(21) - sigma(22)
       - sigma(23) - sigma(24) - sigma(25) - sigma(26) - sigma(27) - sigma(28)
       - sigma(29) - 1.29851786143163 xi(0) - 1.29851786143163 xi(1)
       - 1.34562016814745 xi(2) - 1.34562016814745 xi(3)
       - 3.18292255468072 xi(4) + [ 0.198508161612456 xi(0) ^2
       + 0.397016323224912 xi(0) * xi(1) + 0.295155054077798 xi(0) * xi(2)
       + 0.295155054077798 xi(0) * xi(3) + 0.202495452699129 xi(0) * xi(4)
       + 0.0180064138316834 xi(0) * lambdaL(0)
       - 0.0180064138316834 xi(0) * lambdaU(0)
       + 0.00349221364177294 xi(0) * lambdaL(1)
       - 0.00349221364177294 xi(0) * lambdaU(1)
       - 0.0326144427839596 xi(0) * lambdaL(2)
       + 0.0326144427839596 xi(0) * lambdaU(2)
       + 0.405269306682026 xi(0) * lambdaL(3)
       - 0.405269306682026 xi(0) * lambdaU(3)
       + 0.0213553047858858 xi(0) * lambdaL(4)
       - 0.0213553047858858 xi(0) * lambdaU(4)
       - 0.671135428413206 xi(0) * lambdaL(5)
       + 0.671135428413206 xi(0) * lambdaU(5)
       - 0.00177907931386477 xi(0) * lambdaL(6)
       + 0.00177907931386477 xi(0) * lambdaU(6)
       - 0.34991203750172 xi(0) * lambdaL(7)
       + 0.34991203750172 xi(0) * lambdaU(7)
       + 0.234667628172918 xi(0) * lambdaL(8)
       - 0.234667628172918 xi(0) * lambdaU(8) + 0.198508161612456 xi(1) ^2
       + 0.295155054077798 xi(1) * xi(2) + 0.295155054077798 xi(1) * xi(3)
       + 0.202495452699129 xi(1) * xi(4)
       + 0.0180064138316834 xi(1) * lambdaL(0)
       - 0.0180064138316834 xi(1) * lambdaU(0)
       + 0.00349221364177294 xi(1) * lambdaL(1)
       - 0.00349221364177294 xi(1) * lambdaU(1)
       - 0.0326144427839596 xi(1) * lambdaL(2)
       + 0.0326144427839596 xi(1) * lambdaU(2)
       + 0.405269306682026 xi(1) * lambdaL(3)
       - 0.405269306682026 xi(1) * lambdaU(3)
       + 0.0213553047858858 xi(1) * lambdaL(4)
       - 0.0213553047858858 xi(1) * lambdaU(4)
       - 0.671135428413206 xi(1) * lambdaL(5)
       + 0.671135428413206 xi(1) * lambdaU(5)
       - 0.00177907931386477 xi(1) * lambdaL(6)
       + 0.00177907931386477 xi(1) * lambdaU(6)
       - 0.34991203750172 xi(1) * lambdaL(7)
       + 0.34991203750172 xi(1) * lambdaU(7)
       + 0.234667628172918 xi(1) * lambdaL(8)
       - 0.234667628172918 xi(1) * lambdaU(8) + 0.151579203348207 xi(2) ^2
       + 0.303158406696414 xi(2) * xi(3) + 0.16309461961754 xi(2) * xi(4)
       + 0.239163119539322 xi(2) * lambdaL(0)
       - 0.239163119539322 xi(2) * lambdaU(0)
       + 0.108703835784622 xi(2) * lambdaL(1)
       - 0.108703835784622 xi(2) * lambdaU(1)
       - 0.0980495450954478 xi(2) * lambdaL(2)
       + 0.0980495450954478 xi(2) * lambdaU(2)
       + 0.360642295156798 xi(2) * lambdaL(3)
       - 0.360642295156798 xi(2) * lambdaU(3)
       + 0.262556812657622 xi(2) * lambdaL(4)
       - 0.262556812657622 xi(2) * lambdaU(4)
       - 0.414062143025528 xi(2) * lambdaL(5)
       + 0.414062143025528 xi(2) * lambdaU(5)
       - 0.0564649826050278 xi(2) * lambdaL(6)
       + 0.0564649826050278 xi(2) * lambdaU(6)
       - 0.384953185169834 xi(2) * lambdaL(7)
       + 0.384953185169834 xi(2) * lambdaU(7)
       + 0.0765762769306578 xi(2) * lambdaL(8)
       - 0.0765762769306578 xi(2) * lambdaU(8) + 0.151579203348207 xi(3) ^2
       + 0.16309461961754 xi(3) * xi(4) + 0.239163119539322 xi(3) * lambdaL(0)
       - 0.239163119539322 xi(3) * lambdaU(0)
       + 0.108703835784622 xi(3) * lambdaL(1)
       - 0.108703835784622 xi(3) * lambdaU(1)
       - 0.0980495450954478 xi(3) * lambdaL(2)
       + 0.0980495450954478 xi(3) * lambdaU(2)
       + 0.360642295156798 xi(3) * lambdaL(3)
       - 0.360642295156798 xi(3) * lambdaU(3)
       + 0.262556812657622 xi(3) * lambdaL(4)
       - 0.262556812657622 xi(3) * lambdaU(4)
       - 0.414062143025528 xi(3) * lambdaL(5)
       + 0.414062143025528 xi(3) * lambdaU(5)
       - 0.0564649826050278 xi(3) * lambdaL(6)
       + 0.0564649826050278 xi(3) * lambdaU(6)
       - 0.384953185169834 xi(3) * lambdaL(7)
       + 0.384953185169834 xi(3) * lambdaU(7)
       + 0.0765762769306578 xi(3) * lambdaL(8)
       - 0.0765762769306578 xi(3) * lambdaU(8) + 0.0858835952781514 xi(4) ^2
       + 0.0775529989002948 xi(4) * lambdaL(0)
       - 0.0775529989002948 xi(4) * lambdaU(0)
       + 0.312384500597848 xi(4) * lambdaL(1)
       - 0.312384500597848 xi(4) * lambdaU(1)
       + 0.0188239500464901 xi(4) * lambdaL(2)
       - 0.0188239500464901 xi(4) * lambdaU(2)
       + 0.121973642358747 xi(4) * lambdaL(3)
       - 0.121973642358747 xi(4) * lambdaU(3)
       - 0.0748375820358588 xi(4) * lambdaL(4)
       + 0.0748375820358588 xi(4) * lambdaU(4)
       - 0.358554485086912 xi(4) * lambdaL(5)
       + 0.358554485086912 xi(4) * lambdaU(5)
       - 0.128131773477405 xi(4) * lambdaL(6)
       + 0.128131773477405 xi(4) * lambdaU(6)
       - 0.21477545987156 xi(4) * lambdaL(7)
       + 0.21477545987156 xi(4) * lambdaU(7)
       + 0.16731914037664 xi(4) * lambdaL(8)
       - 0.16731914037664 xi(4) * lambdaU(8) + lambdaL(0) ^2
       - 2 lambdaL(0) * lambdaU(0) + lambdaU(0) ^2 + lambdaL(1) ^2
       - 2 lambdaL(1) * lambdaU(1) + lambdaU(1) ^2 + lambdaL(2) ^2
       - 2 lambdaL(2) * lambdaU(2) + lambdaU(2) ^2 + lambdaL(3) ^2
       - 2 lambdaL(3) * lambdaU(3) + lambdaU(3) ^2 + lambdaL(4) ^2
       - 2 lambdaL(4) * lambdaU(4) + lambdaU(4) ^2 + lambdaL(5) ^2
       - 2 lambdaL(5) * lambdaU(5) + lambdaU(5) ^2 + lambdaL(6) ^2
       - 2 lambdaL(6) * lambdaU(6) + lambdaU(6) ^2 + lambdaL(7) ^2
       - 2 lambdaL(7) * lambdaU(7) + lambdaU(7) ^2 + lambdaL(8) ^2
       - 2 lambdaL(8) * lambdaU(8) + lambdaU(8) ^2 ] / 2
Subject To
 c1:   ap(0) - am(0) + ap(1) - am(1) + ap(2) - am(2) + ap(3) - am(3) + ap(4)
       - am(4) + ap(5) - am(5) + ap(6) - am(6) + ap(7) - am(7) + ap(8) - am(8)
       + ap(9) - am(9) + ap(10) - am(10) + ap(11) - am(11) + ap(12) - am(12)
       + ap(13) - am(13) + ap(14) - am(14) + ap(15) - am(15) + ap(16) - am(16)
       + ap(17) - am(17) + ap(18) - am(18) + ap(19) - am(19) + ap(20) - am(20)
       + ap(21) - am(21) + ap(22) - am(22) + ap(23) - am(23) + ap(24) - am(24)
       + ap(25) - am(25) + ap(26) - am(26) + ap(27) - am(27) + ap(28) - am(28)
       + ap(29) - am(29) + 0.00922032804204974 xi(0)
       + 0.00922032804204974 xi(1) + 0.119518419404623 xi(2)
       + 0.119518419404623 xi(3) - 0.0785948985851686 xi(4)  = 0
 c2:   ap(0) - pip(0) + psip(0) <= 10
 c3:   ap(1) - pip(1) + psip(1) <= 10
 c4:   ap(2) - pip(2) + psip(2) <= 10
 c5:   ap(3) - pip(3) + psip(3) <= 10
 c6:   ap(4) - pip(4) + psip(4) <= 10
 c7:   ap(5) - pip(5) + psip(5) <= 10
 c8:   ap(6) - pip(6) + psip(6) <= 10
 c9:   ap(7) - pip(7) + psip(7) <= 10
 c10:  ap(8) - pip(8) + psip(8) <= 10
 c11:  ap(9) - pip(9) + psip(9) <= 10
 c12:  ap(10) - pip(10) + psip(10) <= 10
 c13:  ap(11) - pip(11) + psip(11) <= 10
 c14:  ap(12) - pip(12) + psip(12) <= 10
 c15:  ap(13) - pip(13) + psip(13) <= 10
 c16:  ap(14) - pip(14) + psip(14) <= 10
 c17:  ap(15) - pip(15) + psip(15) <= 10
 c18:  ap(16) - pip(16) + psip(16) <= 10
 c19:  ap(17) - pip(17) + psip(17) <= 10
 c20:  ap(18) - pip(18) + psip(18) <= 10
 c21:  ap(19) - pip(19) + psip(19) + 0.124852337107158 xi(0)
       + 0.124852337107158 xi(1) + 0.136463214563905 xi(2)
       + 0.136463214563905 xi(3) + 0.0200132084787776 xi(4) <= 10
 c22:  ap(20) - pip(20) + psip(20) <= 10
 c23:  ap(21) - pip(21) + psip(21) <= 10
 c24:  ap(22) - pip(22) + psip(22) <= 10
 c25:  ap(23) - pip(23) + psip(23) <= 10
 c26:  ap(24) - pip(24) + psip(24) <= 10
 c27:  ap(25) - pip(25) + psip(25) <= 10
 c28:  ap(26) - pip(26) + psip(26) <= 10
 c29:  ap(27) - pip(27) + psip(27) <= 10
 c30:  ap(28) - pip(28) + psip(28) <= 10
 c31:  ap(29) - pip(29) + psip(29) <= 10
 c32:  am(0) - pim(0) + psim(0) <= 10
 c33:  am(1) - pim(1) + psim(1) <= 10
 c34:  am(2) - pim(2) + psim(2) <= 10
 c35:  am(3) - pim(3) + psim(3) <= 10
 c36:  am(4) - pim(4) + psim(4) <= 10
 c37:  am(5) - pim(5) + psim(5) <= 10
 c38:  am(6) - pim(6) + psim(6) <= 10
 c39:  am(7) - pim(7) + psim(7) <= 10
 c40:  am(8) - pim(8) + psim(8) <= 10
 c41:  am(9) - pim(9) + psim(9) <= 10
 c42:  am(10) - pim(10) + psim(10) <= 10
 c43:  am(11) - pim(11) + psim(11) <= 10
 c44:  am(12) - pim(12) + psim(12) <= 10
 c45:  am(13) - pim(13) + psim(13) <= 10
 c46:  am(14) - pim(14) + psim(14) <= 10
 c47:  am(15) - pim(15) + psim(15) <= 10
 c48:  am(16) - pim(16) + psim(16) <= 10
 c49:  am(17) - pim(17) + psim(17) <= 10
 c50:  am(18) - pim(18) + psim(18) <= 10
 c51:  am(19) - pim(19) + psim(19) <= 10
 c52:  am(20) - pim(20) + psim(20) <= 10
 c53:  am(21) - pim(21) + psim(21) <= 10
 c54:  am(22) - pim(22) + psim(22) <= 10
 c55:  am(23) - pim(23) + psim(23) <= 10
 c56:  am(24) - pim(24) + psim(24) <= 10
 c57:  am(25) - pim(25) + psim(25) <= 10
 c58:  am(26) - pim(26) + psim(26) <= 10
 c59:  am(27) - pim(27) + psim(27) <= 10
 c60:  am(28) - pim(28) + psim(28) <= 10
 c61:  am(29) - pim(29) + psim(29) <= 10
 c62:  beta1 + phi(0) - xi(2) - xi(3) - 10 lambdaL(0) - 10 lambdaU(0) >= 0
 c63:  beta1 + phi(1) - 0.42100166353331 xi(4) - 10 lambdaL(1) - 10 lambdaU(1)
       >= 0
 c64:  beta1 + phi(2) + 0.147837996482849 lambdaL(2)
       - 14.7838001251221 lambdaU(2) >= 0
 c65:  beta1 + phi(3) - xi(0) - xi(1) + xi(4) - 10 lambdaL(3) - 10 lambdaU(3)
       >= 0
 c66:  beta1 + phi(4) + 0.329661995172501 lambdaL(4)
       - 32.9661979675293 lambdaU(4) >= 0
 c67:  beta1 + phi(5) - 22.3787994384766 lambdaL(5)
       + 0.223787993192673 lambdaU(5) >= 0
 c68:  beta1 + phi(6) + 0.0631588995456696 lambdaL(6)
       - 6.31588983535767 lambdaU(6) >= 0
 c69:  beta1 + phi(7) - xi(0) - xi(1) - xi(2) - xi(3) - 10 lambdaL(7)
       - 10 lambdaU(7) >= 0
 c70:  beta1 + phi(8) + xi(4) - 10 lambdaL(8) - 10 lambdaU(8) >= 0
 c71:  98338.1669345485 psip(0) + 98338.1669345485 psim(0) + beta2 - sigma(0)
       <= 1966763.33869097
 c72:  210067.861904958 psip(1) + 210067.861904958 psim(1) + beta2 - sigma(1)
       <= 4201357.23809916
 c73:  1138715.08330176 psip(2) + 1138715.08330176 psim(2) + beta2 - sigma(2)
       <= 22774301.6660352
 c74:  35176.3843474778 psip(3) + 35176.3843474778 psim(3) + beta2 - sigma(3)
       <= 703527.686949556
 c75:  34707.2685582368 psip(4) + 34707.2685582368 psim(4) + beta2 - sigma(4)
       <= 694145.371164735
 c76:  309612.605059712 psip(5) + 309612.605059712 psim(5) + beta2 - sigma(5)
       <= 6192252.10119425
 c77:  0.174207603276244 psip(6) + 0.174207603276244 psim(6) + beta2 - sigma(6)
       <= 3.48415206552488
 c78:  2.19230480622556 psip(7) + 2.19230480622556 psim(7) + beta2 - sigma(7)
       <= 43.8460961245113
 c79:  336040.609473724 psip(8) + 336040.609473724 psim(8) + beta2 - sigma(8)
       <= 6720812.18947447
 c80:  22388.2190710076 psip(9) + 22388.2190710076 psim(9) + beta2 - sigma(9)
       <= 447764.381420152
 c81:  536016.976133606 psip(10) + 536016.976133606 psim(10) + beta2
       - sigma(10) <= 10720339.5226721
 c82:  436513.787557593 psip(11) + 436513.787557593 psim(11) + beta2
       - sigma(11) <= 8730275.75115186
 c83:  928805.018274404 psip(12) + 928805.018274404 psim(12) + beta2
       - sigma(12) <= 18576100.3654881
 c84:  299899.95498663 psip(13) + 299899.95498663 psim(13) + beta2 - sigma(13)
       <= 5997999.0997326
 c85:  0.368486206436813 psip(14) + 0.368486206436813 psim(14) + beta2
       - sigma(14) <= 7.36972412873627
 c86:  73344.5555986031 psip(15) + 73344.5555986031 psim(15) + beta2
       - sigma(15) <= 1466891.11197206
 c87:  844562.200188497 psip(16) + 844562.200188497 psim(16) + beta2
       - sigma(16) <= 16891244.0037699
 c88:  776444.183769329 psip(17) + 776444.183769329 psim(17) + beta2
       - sigma(17) <= 15528883.6753866
 c89:  178747.471969063 psip(18) + 178747.471969063 psim(18) + beta2
       - sigma(18) <= 3574949.43938127
 c90:  96724.6057459246 psip(19) + 96724.6057459246 psim(19) + beta2
       - sigma(19) <= 1934492.11491849
 c91:  280585.736703628 psip(20) + 280585.736703628 psim(20) + beta2
       - sigma(20) <= 5611714.73407256
 c92:  0.537563069197278 psip(21) + 0.537563069197278 psim(21) + beta2
       - sigma(21) <= 10.7512613839456
 c93:  123277.992790926 psip(22) + 123277.992790926 psim(22) + beta2
       - sigma(22) <= 2465559.85581852
 c94:  54473.4785171492 psip(23) + 54473.4785171492 psim(23) + beta2
       - sigma(23) <= 1089469.57034298
 c95:  0.309016934174622 psip(24) + 0.309016934174622 psim(24) + beta2
       - sigma(24) <= 6.18033868349244
 c96:  897552.333650173 psip(25) + 897552.333650173 psim(25) + beta2
       - sigma(25) <= 17951046.6730035
 c97:  345716.521716023 psip(26) + 345716.521716023 psim(26) + beta2
       - sigma(26) <= 6914330.43432046
 c98:  45867.0288797256 psip(27) + 45867.0288797256 psim(27) + beta2
       - sigma(27) <= 917340.577594512
 c99:  134775.407672028 psip(28) + 134775.407672028 psim(28) + beta2
       - sigma(28) <= 2695508.15344055
 c100: 24845.7238458689 psip(29) + 24845.7238458689 psim(29) + beta2
       - sigma(29) <= 496914.476917378
End
